TCS_Benchmarks/redos_fix/corpus2_output_distinct_2215_2214_40_0.txt
(.+)(\d+)
(.+)( at line (\d+), column )(\d+)